; PUSH cw_1 DUP4 SWAP1 => DUP3 PUSH cw_1
(set-option :produce-proofs true)
; 
(set-info :status unknown)
(declare-fun storage_t ((_ BitVec 256) (_ BitVec 256) (_ BitVec 256) (_ BitVec 256) Int (_ BitVec 256)) (_ BitVec 256))
(declare-fun w_1 () (_ BitVec 256))
(declare-fun storage_s ((_ BitVec 256) (_ BitVec 256) (_ BitVec 256) (_ BitVec 256) Int (_ BitVec 256)) (_ BitVec 256))
(declare-fun exc_halt_t (Int) Bool)
(declare-fun exc_halt_s (Int) Bool)
(declare-fun sc_t (Int) (_ BitVec 6))
(declare-fun stack_t ((_ BitVec 256) (_ BitVec 256) (_ BitVec 256) (_ BitVec 256) Int (_ BitVec 6)) (_ BitVec 256))
(declare-fun stack_s ((_ BitVec 256) (_ BitVec 256) (_ BitVec 256) (_ BitVec 256) Int (_ BitVec 6)) (_ BitVec 256))
(declare-fun sc_s (Int) (_ BitVec 6))
(declare-fun used_gas_t ((_ BitVec 256) (_ BitVec 256) (_ BitVec 256) (_ BitVec 256) Int) Int)
(declare-fun used_gas_s ((_ BitVec 256) (_ BitVec 256) (_ BitVec 256) (_ BitVec 256) Int) Int)
(assert
 (exists ((x_0 (_ BitVec 256)) (x_1 (_ BitVec 256)) (x_2 (_ BitVec 256)) )(let (($x1985 (forall ((w (_ BitVec 256)) )(let ((?x5591 (storage_t x_0 x_1 x_2 w_1 2 w)))
 (let ((?x10017 (storage_s x_0 x_1 x_2 w_1 3 w)))
 (= ?x10017 ?x5591))))
 ))
 (let (($x9627 (exc_halt_t 2)))
 (let (($x292 (exc_halt_s 3)))
 (let (($x3292 (= $x292 $x9627)))
 (let (($x2961 (forall ((n (_ BitVec 6)) )(let ((?x7221 (stack_t x_0 x_1 x_2 w_1 2 n)))
 (let ((?x9398 (stack_s x_0 x_1 x_2 w_1 3 n)))
 (let (($x4179 (= ?x9398 ?x7221)))
 (or $x4179 (bvsle (sc_t 2) n))))))
 ))
 (let ((?x2714 (sc_t 2)))
 (let ((?x275 (sc_s 3)))
 (let (($x6692 (= ?x275 ?x2714)))
 (let ((?x8607 (used_gas_t x_0 x_1 x_2 w_1 0)))
 (let ((?x10456 (used_gas_s x_0 x_1 x_2 w_1 0)))
 (let (($x4157 (= ?x10456 ?x8607)))
 (let (($x5980 (forall ((w (_ BitVec 256)) )(let ((?x3060 (storage_t x_0 x_1 x_2 w_1 0 w)))
 (let ((?x10852 (storage_s x_0 x_1 x_2 w_1 0 w)))
 (= ?x10852 ?x3060))))
 ))
 (let (($x56 (exc_halt_t 0)))
 (let (($x57 (exc_halt_s 0)))
 (let (($x58 (= $x57 $x56)))
 (let (($x8341 (forall ((n (_ BitVec 6)) )(let ((?x63 (sc_t 0)))
 (let (($x11399 (bvsle ?x63 n)))
 (let ((?x947 (stack_t x_0 x_1 x_2 w_1 0 n)))
 (let ((?x2595 (stack_s x_0 x_1 x_2 w_1 0 n)))
 (let (($x5272 (= ?x2595 ?x947)))
 (or $x5272 $x11399)))))))
 ))
 (let ((?x63 (sc_t 0)))
 (let ((?x72 (sc_s 0)))
 (let (($x73 (= ?x72 ?x63)))
 (let (($x8377 (exc_halt_t 1)))
 (let (($x9056 (or $x8377 (not (= ((_ extract 6 6) (bvadd (_ bv1 7) (concat (_ bv0 1) (sc_t 1)))) (_ bv0 1))))))
 (let (($x8102 (= $x9627 $x9056)))
 (let (($x4847 (forall ((w (_ BitVec 256)) )(let ((?x1320 (storage_t x_0 x_1 x_2 w_1 1 w)))
 (let ((?x5591 (storage_t x_0 x_1 x_2 w_1 2 w)))
 (= ?x5591 ?x1320))))
 ))
 (let (($x8914 (forall ((n (_ BitVec 6)) )(let ((?x5601 (stack_t x_0 x_1 x_2 w_1 1 n)))
 (let ((?x7221 (stack_t x_0 x_1 x_2 w_1 2 n)))
 (let ((?x7154 (sc_t 1)))
 (let (($x2077 (bvsle ?x7154 n)))
 (or $x2077 (= ?x7221 ?x5601)))))))
 ))
 (let (($x8876 (= ?x2714 (bvadd (_ bv1 6) (sc_t 1)))))
 (let (($x11489 (= (used_gas_t x_0 x_1 x_2 w_1 2) (+ 3 (used_gas_t x_0 x_1 x_2 w_1 1)))))
 (let (($x1297 (not (= ((_ extract 6 6) (bvadd (_ bv1 7) (concat (_ bv0 1) ?x63))) (_ bv0 1)))))
 (let (($x2899 (forall ((w (_ BitVec 256)) )(let ((?x3060 (storage_t x_0 x_1 x_2 w_1 0 w)))
 (let ((?x1320 (storage_t x_0 x_1 x_2 w_1 1 w)))
 (= ?x1320 ?x3060))))
 ))
 (let (($x8167 (forall ((n (_ BitVec 6)) )(let ((?x947 (stack_t x_0 x_1 x_2 w_1 0 n)))
 (let ((?x5601 (stack_t x_0 x_1 x_2 w_1 1 n)))
 (or (bvsle (bvadd (_ bv61 6) (sc_t 0)) n) (= ?x5601 ?x947)))))
 ))
 (let ((?x7154 (sc_t 1)))
 (let (($x3155 (= ?x7154 (bvadd (_ bv1 6) ?x63))))
 (let (($x1924 (= (stack_t x_0 x_1 x_2 w_1 1 (bvadd (_ bv63 6) ?x63)) (stack_t x_0 x_1 x_2 w_1 0 (bvadd (_ bv63 6) ?x63)))))
 (let (($x3104 (= (stack_t x_0 x_1 x_2 w_1 1 (bvadd (_ bv62 6) ?x63)) (stack_t x_0 x_1 x_2 w_1 0 (bvadd (_ bv62 6) ?x63)))))
 (let ((?x2010 (bvadd (_ bv61 6) ?x63)))
 (let ((?x8037 (stack_t x_0 x_1 x_2 w_1 0 ?x2010)))
 (let (($x4349 (= $x292 (or (exc_halt_s 2) (not (bvsle (_ bv0 6) (bvadd (_ bv62 6) (sc_s 2))))))))
 (let (($x9130 (forall ((w (_ BitVec 256)) )(let ((?x5817 (storage_s x_0 x_1 x_2 w_1 2 w)))
 (let ((?x10017 (storage_s x_0 x_1 x_2 w_1 3 w)))
 (= ?x10017 ?x5817))))
 ))
 (let (($x10479 (forall ((n (_ BitVec 6)) )(let ((?x10227 (stack_s x_0 x_1 x_2 w_1 2 n)))
 (let ((?x9398 (stack_s x_0 x_1 x_2 w_1 3 n)))
 (or (= ?x9398 ?x10227) (bvsle (bvadd (_ bv62 6) (sc_s 2)) n)))))
 ))
 (let (($x5546 (= (used_gas_s x_0 x_1 x_2 w_1 3) (+ 3 (used_gas_s x_0 x_1 x_2 w_1 2)))))
 (let ((?x218 (sc_s 2)))
 (let ((?x5342 (bvadd (_ bv63 6) ?x218)))
 (let ((?x4911 (stack_s x_0 x_1 x_2 w_1 2 ?x5342)))
 (let (($x36 (= (stack_s x_0 x_1 x_2 w_1 3 (bvadd (_ bv63 6) ?x275)) (stack_s x_0 x_1 x_2 w_1 2 (bvadd (_ bv62 6) ?x218)))))
 (let (($x189 (exc_halt_s 1)))
 (let (($x5848 (or $x189 (not (= ((_ extract 6 6) (bvadd (_ bv1 7) (concat (_ bv0 1) (sc_s 1)))) (_ bv0 1))) (not (bvsle (_ bv0 6) (bvadd (_ bv60 6) (sc_s 1)))))))
 (let (($x247 (exc_halt_s 2)))
 (let (($x11796 (forall ((w (_ BitVec 256)) )(let ((?x2784 (storage_s x_0 x_1 x_2 w_1 1 w)))
 (let ((?x5817 (storage_s x_0 x_1 x_2 w_1 2 w)))
 (= ?x5817 ?x2784))))
 ))
 (let (($x7343 (forall ((n (_ BitVec 6)) )(let ((?x5295 (stack_s x_0 x_1 x_2 w_1 1 n)))
 (let ((?x10227 (stack_s x_0 x_1 x_2 w_1 2 n)))
 (or (= ?x10227 ?x5295) (bvsle (bvadd (_ bv60 6) (sc_s 1)) n)))))
 ))
 (let ((?x5325 (used_gas_s x_0 x_1 x_2 w_1 2)))
 (let (($x8894 (= (stack_s x_0 x_1 x_2 w_1 2 (bvadd (_ bv63 6) (sc_s 1))) (stack_s x_0 x_1 x_2 w_1 1 (bvadd (_ bv63 6) (sc_s 1))))))
 (let (($x4712 (= (stack_s x_0 x_1 x_2 w_1 2 (bvadd (_ bv62 6) (sc_s 1))) (stack_s x_0 x_1 x_2 w_1 1 (bvadd (_ bv62 6) (sc_s 1))))))
 (let (($x7193 (= (stack_s x_0 x_1 x_2 w_1 2 (bvadd (_ bv61 6) (sc_s 1))) (stack_s x_0 x_1 x_2 w_1 1 (bvadd (_ bv61 6) (sc_s 1))))))
 (let ((?x154 (sc_s 1)))
 (let ((?x10691 (bvadd (_ bv60 6) ?x154)))
 (let ((?x9254 (stack_s x_0 x_1 x_2 w_1 1 ?x10691)))
 (let (($x5870 (= $x189 (or $x57 (not (= ((_ extract 6 6) (bvadd (_ bv1 7) (concat (_ bv0 1) ?x72))) (_ bv0 1)))))))
 (let (($x10476 (forall ((w (_ BitVec 256)) )(let ((?x10852 (storage_s x_0 x_1 x_2 w_1 0 w)))
 (let ((?x2784 (storage_s x_0 x_1 x_2 w_1 1 w)))
 (= ?x2784 ?x10852))))
 ))
 (let (($x8716 (forall ((n (_ BitVec 6)) )(let ((?x72 (sc_s 0)))
 (let (($x11860 (bvsle ?x72 n)))
 (let ((?x2595 (stack_s x_0 x_1 x_2 w_1 0 n)))
 (let ((?x5295 (stack_s x_0 x_1 x_2 w_1 1 n)))
 (or (= ?x5295 ?x2595) $x11860))))))
 ))
 (let (($x11668 (= ?x154 (bvadd (_ bv1 6) ?x72))))
 (let (($x7585 (forall ((w (_ BitVec 256)) )(let ((?x10852 (storage_s x_0 x_1 x_2 w_1 0 w)))
 (= ?x10852 (_ bv0 256))))
 ))
 (let (($x9401 (= ?x10456 0)))
 (let (($x11580 (not $x57)))
 (let (($x6962 (= (stack_s x_0 x_1 x_2 w_1 0 (_ bv2 6)) x_2)))
 (let (($x2965 (= (stack_s x_0 x_1 x_2 w_1 0 (_ bv1 6)) x_1)))
 (let (($x7579 (= (stack_s x_0 x_1 x_2 w_1 0 (_ bv0 6)) x_0)))
 (let (($x10863 (= ?x72 (_ bv3 6))))
 (and $x10863 $x7579 $x2965 $x6962 $x11580 $x9401 $x7585 (= (stack_s x_0 x_1 x_2 w_1 1 ?x72) w_1) (= (used_gas_s x_0 x_1 x_2 w_1 1) (+ 3 ?x10456)) $x11668 $x8716 $x10476 $x5870 (= ?x4911 ?x9254) (= (stack_s x_0 x_1 x_2 w_1 2 ?x10691) ?x9254) $x7193 $x4712 $x8894 (= ?x5325 (+ 3 (used_gas_s x_0 x_1 x_2 w_1 1))) (= ?x218 (bvadd (_ bv1 6) ?x154)) $x7343 $x11796 (= $x247 $x5848) $x36 (= (stack_s x_0 x_1 x_2 w_1 3 (bvadd (_ bv62 6) ?x275)) ?x4911) $x5546 (= ?x275 ?x218) $x10479 $x9130 $x4349 (= (stack_t x_0 x_1 x_2 w_1 1 (bvadd (_ bv63 6) ?x7154)) ?x8037) (= (stack_t x_0 x_1 x_2 w_1 1 ?x2010) ?x8037) $x3104 $x1924 (= (used_gas_t x_0 x_1 x_2 w_1 1) (+ 3 ?x8607)) $x3155 $x8167 $x2899 (= $x8377 (or $x56 $x1297 (not (bvsle (_ bv0 6) ?x2010)))) (= (stack_t x_0 x_1 x_2 w_1 2 ?x7154) w_1) $x11489 $x8876 $x8914 $x4847 $x8102 $x73 $x8341 $x58 $x5980 $x4157 (not (and $x6692 $x2961 $x3292 $x1985))))))))))))))))))))))))))))))))))))))))))))))))))))))))))))))))))))))
 )
(check-sat)
(get-proof)
